$comment
[[comment]]
$end

$molecule
[[charge]] [[multiplicity]]
[[xyz]]
$end

$rem
method [[method]]
basis [[basis]]
threads [[threads]]
mem_total [[memory]]
!QSYS wt=[[walltime]]
[[rem_args]]
$end

[[section_args]]
